c Random Network
p max    10      20
n         1  s
n        10  t
a       3       1      49
a       2       8      11
a       1       6       7
a       9      10      20
a       2       1      38
a       1       7      11
a       2       6      43
a       3       6      26
a       1       3      21
a       6       2       9
a       7       2      35
a       2       7      47
a       7      10       1
a       9       2      16
a       1       2      12
a      10       5      15
a       9       5      28
a      10       1      19
a      10       3      26
a      10       6      25
